\ This file has been generated by DOcplex
\ ENCODING=ISO-8859-1
\Problem name: random_problem.lp

Minimize
 obj: 9 x0 + 2 x1 + 8 x2 + 8 x3 - 6 x4 - 7 x5 + 9 x6 - 8 x9 - 7 x10 + 9 x11
      + 4 x12 + 3 x13 + 3 x14 + 5 x15 - 9 x16 - 8 x17 + 2 x18 + 8 x19 - 8 x20
      - 8 x21 + 4 x22 + 6 x23 - 9 x24 - 3 x25 + 5 x26 + 4 x27 + 2 x28 + 8 x29
      + 5 x30 + 4 x31 - 9 x32 - 4 x33 + 6 x34 + 7 x35 - 8 x36 - 9 x37 - 7 x38
      + 3 x39 - 2 x40 - 2 x41 + 9 x42 + 7 x44 + [ 18 x0*x5 - 12 x0*x12
      + 2 x0*x16 + 2 x0*x18 - 14 x0*x21 - 18 x0*x27 - 2 x0*x31 - 14 x0*x37
      - 12 x0*x42 + 20 x0*x43 - 14 x1*x3 - 6 x1*x10 + 2 x1*x13 - 12 x1*x14
      + 2 x1*x18 + 14 x1*x21 + 4 x1*x26 + 6 x1*x28 + 12 x1*x37 + 16 x1*x38
      + 12 x2*x9 - 4 x2*x11 + 2 x2*x12 + 6 x2*x14 + 8 x2*x20 + 10 x2*x21
      - 12 x2*x24 - 16 x2*x30 - 12 x2*x33 + 4 x2*x41 + 8 x3*x4 - 10 x3*x5
      - 12 x3*x9 - 2 x3*x10 - 10 x3*x14 - 6 x3*x19 + 18 x3*x28 - 16 x3*x30
      - 2 x3*x44 + 2 x4*x7 + 16 x4*x10 - 8 x4*x13 + 10 x4*x17 + 18 x4*x20
      + 18 x4*x22 - 20 x4*x25 + 14 x4*x30 - 6 x4*x33 + 8 x5*x8 + 2 x5*x13
      - 16 x5*x15 - 4 x5*x21 - 14 x5*x23 + 12 x5*x33 + 20 x5*x34 - 12 x5*x37
      + 2 x6*x14 - 4 x6*x15 - 6 x6*x20 - 20 x6*x22 + 14 x6*x23 + 20 x6*x26
      + 4 x6*x33 - 12 x6*x34 - 4 x6*x38 + 14 x6*x39 - 10 x7*x11 - 18 x7*x12
      - 14 x7*x21 - 16 x7*x22 + 10 x7*x23 + 6 x7*x24 + 20 x7*x26 - 14 x7*x40
      - 10 x7*x41 - 20 x8*x10 - 18 x8*x17 - 6 x8*x19 - 18 x8*x26 + 10 x8*x27
      - 10 x8*x34 - 4 x8*x35 - 6 x8*x37 + 16 x8*x42 - 18 x9*x13 + 2 x9*x23
      - 20 x9*x27 - 8 x9*x33 + 20 x9*x34 - 20 x9*x36 - 16 x9*x40 + 8 x9*x44
      - 16 x10*x11 + 8 x10*x13 - 14 x10*x34 + 2 x10*x39 - 20 x10*x40 + 6 x10*x41
      + 2 x11*x14 + 10 x11*x16 + 14 x11*x23 - 6 x11*x26 - 12 x11*x36 - 2 x11*x39
      + 14 x11*x43 + 14 x12*x14 - 10 x12*x18 + 2 x12*x29 + 12 x12*x32
      + 2 x12*x34 + 4 x12*x36 + 10 x12*x43 - 2 x13*x14 + 18 x13*x17 + 14 x13*x31
      - 10 x13*x35 - 20 x13*x36 - 8 x14*x21 - 14 x14*x23 + 4 x14*x28 + 6 x15*x17
      + 12 x15*x18 - 8 x15*x19 + 14 x15*x20 - 2 x15*x25 - 4 x15*x33 + 10 x15*x37
      - 14 x15*x39 - 10 x16*x17 + 6 x16*x25 + 8 x16*x27 + 4 x16*x31 - 16 x16*x32
      - 10 x16*x41 + 10 x16*x42 + 14 x16*x44 + 16 x17*x24 - 6 x17*x32
      + 8 x17*x35 + 2 x17*x37 - 2 x17*x42 + 18 x18*x27 + 20 x18*x28 - 16 x18*x29
      + 12 x18*x30 - 2 x18*x40 - 18 x18*x41 - 18 x19*x22 + 6 x19*x27
      - 16 x19*x32 + 16 x19*x34 - 10 x19*x38 + 10 x19*x39 - 18 x19*x40
      + 12 x20*x22 + 14 x20*x26 + 6 x20*x30 + 4 x20*x31 - 2 x20*x38 - 2 x20*x43
      + 10 x21*x30 - 18 x21*x37 - 8 x21*x39 + 14 x21*x44 - 6 x22*x30 + 6 x22*x33
      - 4 x22*x41 - 14 x22*x42 + 6 x22*x44 + 4 x23*x29 - 4 x23*x42 + 14 x23*x43
      - 6 x23*x44 - 16 x24*x25 + 4 x24*x35 - 10 x24*x37 - 10 x24*x38 - 8 x24*x40
      + 2 x24*x42 + 6 x24*x43 - 14 x25*x26 - 14 x25*x30 + 10 x25*x32
      + 20 x25*x33 - 18 x25*x38 + 20 x25*x39 - 2 x26*x30 - 20 x26*x32
      + 14 x26*x36 - 14 x27*x29 + 18 x27*x32 - 16 x27*x36 - 6 x27*x41
      - 12 x28*x29 + 6 x28*x32 + 2 x28*x33 + 18 x28*x34 - 4 x28*x35 + 2 x28*x38
      + 16 x29*x31 + 4 x29*x36 - 4 x29*x38 - 14 x29*x40 - 14 x29*x42
      + 10 x30*x37 + 4 x31*x32 + 14 x31*x35 + 12 x31*x38 - 14 x31*x40
      - 2 x31*x41 + 2 x32*x36 + 2 x33*x34 - 4 x34*x41 + 18 x35*x37 - 4 x35*x38
      + 10 x35*x41 + 18 x35*x43 + 8 x36*x40 - 2 x36*x42 - 18 x39*x42 - 2 x39*x43
      - 18 x39*x44 + 6 x40*x43 + 14 x43*x44 ]/2
Subject To
 c0: - x4 - x6 + x7 - x8 + 2 x21 - 2 x22 - 2 x36 - x38 + 2 x41 + x44 = 0
 c1: - 2 x2 + x3 + x4 - x11 - 2 x22 + x26 - x27 + x35 - x38 + 2 x43 = -2
 c2: x7 - 2 x10 - 2 x12 + 2 x15 + 2 x17 - x21 - 2 x25 - 2 x26 - x28 + 2 x29 = 1
 c3: - x3 - 2 x5 - 2 x23 + x24 - 2 x26 + x27 + 2 x30 - 2 x31 - x33 - x34 = 0
 c4: - 2 x6 - x7 - x13 + x14 - x18 - 2 x19 + x24 - x29 + x32 - 2 x41 = -2
 c5: - x2 + 2 x3 + x12 - 2 x21 - 2 x22 - x25 + 2 x28 - 2 x34 + 2 x37 + 2 x41 = 
     1
 c6: x17 - x19 - x20 + 2 x22 - 2 x26 - x27 - x35 + 2 x38 + 2 x42 + x44 = 0
 c7: x5 - 2 x7 + x9 + x16 - x18 + x19 + 2 x23 - x39 - 2 x41 + 2 x43 = -2
 c8: - x0 + 2 x3 - x8 - 2 x9 + 2 x11 - x15 + x26 + x36 - 2 x40 + 2 x43 = 0

Bounds
 0 <= x0 <= 1
 0 <= x1 <= 1
 0 <= x2 <= 1
 0 <= x3 <= 1
 0 <= x4 <= 1
 0 <= x5 <= 1
 0 <= x6 <= 1
 0 <= x7 <= 1
 0 <= x8 <= 1
 0 <= x9 <= 1
 0 <= x10 <= 1
 0 <= x11 <= 1
 0 <= x12 <= 1
 0 <= x13 <= 1
 0 <= x14 <= 1
 0 <= x15 <= 1
 0 <= x16 <= 1
 0 <= x17 <= 1
 0 <= x18 <= 1
 0 <= x19 <= 1
 0 <= x20 <= 1
 0 <= x21 <= 1
 0 <= x22 <= 1
 0 <= x23 <= 1
 0 <= x24 <= 1
 0 <= x25 <= 1
 0 <= x26 <= 1
 0 <= x27 <= 1
 0 <= x28 <= 1
 0 <= x29 <= 1
 0 <= x30 <= 1
 0 <= x31 <= 1
 0 <= x32 <= 1
 0 <= x33 <= 1
 0 <= x34 <= 1
 0 <= x35 <= 1
 0 <= x36 <= 1
 0 <= x37 <= 1
 0 <= x38 <= 1
 0 <= x39 <= 1
 0 <= x40 <= 1
 0 <= x41 <= 1
 0 <= x42 <= 1
 0 <= x43 <= 1
 0 <= x44 <= 1

Binaries
 x0 x1 x2 x3 x4 x5 x6 x7 x8 x9 x10 x11 x12 x13 x14 x15 x16 x17 x18 x19 x20 x21
 x22 x23 x24 x25 x26 x27 x28 x29 x30 x31 x32 x33 x34 x35 x36 x37 x38 x39 x40 x41
 x42 x43 x44
End
